27 35 73 47 18 47 46 97 97 41 31 30 69 24 90 33 62 50 49 33 45 36 88 95 50 
91 34 20 10 82 33 67 54 11 98 20 30 29 48 18 46 97 44 39 42 44 50 14 47 17 
63 34 23 41 50 49 47 75 42 78 49 55 86 55 44 94 78 78 90 29 83 80 40 35 70 
66 46 41 49 81 48 62 21 80 39 64 92 42 13 86 34 85 77 99 22 35 94 93 40 35 
21 56 51 20 52 24 88 63 39 74 18 30 48 46 15 66 96 96 41 35 44 25 78 79 37 
621.00
